;; produced by cvc4_14.drv ;;
(set-info :smt-lib-version 2.5)
(set-logic AUFBVFPDTNIRA)
(set-info :source |VC generated by SPARK 2014|)
(set-info :category industrial)
(set-info :status unknown)
;;; generated by SMT-LIB2 driver
;;; SMT-LIB2 driver: bit-vectors, common part
;;; SMT-LIB2: integer arithmetic
(declare-datatypes () ((tuple0 (Tuple0))))
(declare-sort us_private 0)

(declare-fun private__bool_eq (us_private us_private) Bool)

(declare-fun us_null_ext__ () us_private)

(declare-sort us_type_of_heap 0)

(declare-datatypes ()
((us_type_of_heap__ref
 (mk___type_of_heap__ref (us_type_of_heap__content us_type_of_heap)))))
(declare-sort us_image 0)

(declare-datatypes () ((int__ref (mk_int__ref (int__content Int)))))
(declare-datatypes () ((bool__ref (mk_bool__ref (bool__content Bool)))))
(declare-datatypes () ((real__ref (mk_real__ref (real__content Real)))))
(declare-datatypes ()
((us_private__ref (mk___private__ref (us_private__content us_private)))))
(define-fun int__ref___projection ((a int__ref)) Int (int__content a))

(define-fun bool__ref___projection ((a bool__ref)) Bool (bool__content a))

(define-fun real__ref___projection ((a real__ref)) Real (real__content a))

(define-fun us_private__ref___projection ((a us_private__ref)) us_private
  (us_private__content a))

(declare-sort element 0)

(define-fun in_range ((x Int)) Bool (and (<= 0 x) (<= x 9)))

(declare-fun attr__ATTRIBUTE_IMAGE (Int) us_image)

(declare-fun attr__ATTRIBUTE_VALUE__pre_check (us_image) Bool)

(declare-fun attr__ATTRIBUTE_VALUE (us_image) Int)

(declare-fun user_eq (element element) Bool)

(declare-fun dummy () element)

(declare-datatypes ()
((element__ref (mk_element__ref (element__content element)))))
(define-fun element__ref___projection ((a element__ref)) element (element__content
                                                                 a))

(define-fun dynamic_invariant ((temp___expr_520 Int)
  (temp___is_init_517 Bool) (temp___skip_constant_518 Bool)
  (temp___do_toplevel_519 Bool)) Bool (=>
                                      (or (= temp___is_init_517 true)
                                      (<= 0 9)) (in_range temp___expr_520)))

(declare-fun to_rep (element) Int)

(declare-fun of_rep (Int) element)

;; inversion_axiom
  (assert
  (forall ((x element)) (! (= (of_rep (to_rep x)) x) :pattern ((to_rep x)) )))

;; range_axiom
  (assert
  (forall ((x element)) (! (in_range (to_rep x)) :pattern ((to_rep x)) )))

;; coerce_axiom
  (assert
  (forall ((x Int))
  (! (=> (in_range x) (= (to_rep (of_rep x)) x)) :pattern ((to_rep
                                                           (of_rep x))) )))

(declare-datatypes ()
((us_split_fields
 (mk___split_fields
 (rec__this_parent__object__a element)(rec__ext__ us_private)))))
(define-fun us_split_fields_A__projection ((a us_split_fields)) element
  (rec__this_parent__object__a a))

(define-fun us_split_fields_2__projection ((a us_split_fields)) us_private
  (rec__ext__ a))

(declare-datatypes ()
((us_split_fields__ref
 (mk___split_fields__ref (us_split_fields__content us_split_fields)))))
(define-fun us_split_fields__ref_2__projection ((a us_split_fields__ref)) us_split_fields
  (us_split_fields__content a))

(declare-datatypes ()
((us_rep (mk___rep (us_split_fields1 us_split_fields)(attr__tag Int)))))
(define-fun us_rep_3__projection ((a us_rep)) us_split_fields (us_split_fields1
                                                              a))

(define-fun us_rep_4__projection ((a us_rep)) Int (attr__tag a))

(define-fun bool_eq ((a us_rep)
  (b us_rep)) Bool (ite (= (to_rep
                           (rec__this_parent__object__a (us_split_fields1 a)))
                   (to_rep
                   (rec__this_parent__object__a (us_split_fields1 b)))) true
                   false))

(declare-fun us_dispatch_eq (us_rep us_rep) Bool)

(declare-fun us_tag () Int)

(declare-fun value__size () Int)

(declare-fun object__size (us_rep) Int)

(declare-fun value__alignment () Int)

(declare-fun object__alignment (us_rep) Int)

;; value__size_axiom
  (assert (<= 0 value__size))

;; object__size_axiom
  (assert (forall ((a us_rep)) (<= 0 (object__size a))))

;; value__alignment_axiom
  (assert (<= 0 value__alignment))

;; object__alignment_axiom
  (assert (forall ((a us_rep)) (<= 0 (object__alignment a))))

(declare-fun this_parent__object__a__first__bit () Int)

(declare-fun this_parent__object__a__last__bit () Int)

(declare-fun this_parent__object__a__position () Int)

;; this_parent__object__a__first__bit_axiom
  (assert (<= 0 this_parent__object__a__first__bit))

;; this_parent__object__a__last__bit_axiom
  (assert
  (< this_parent__object__a__first__bit this_parent__object__a__last__bit))

;; this_parent__object__a__position_axiom
  (assert (<= 0 this_parent__object__a__position))

(declare-fun user_eq1 (us_rep us_rep) Bool)

(declare-fun dummy1 () us_rep)

(declare-datatypes ()
((object__ref (mk_object__ref (object__content us_rep)))))
(define-fun object__ref___projection ((a object__ref)) us_rep (object__content
                                                              a))

(define-fun default_initial_assumption ((temp___expr_527 us_rep)
  (temp___skip_top_level_528 Bool)) Bool (= (attr__tag temp___expr_527)
  us_tag))

(declare-fun this__attr__tag () Int)

(declare-fun attr__ATTRIBUTE_ADDRESS () Int)

(declare-fun attr__ATTRIBUTE_ADDRESS1 () Int)

(declare-fun this__split_fields () element)

(declare-fun step () Int)

(declare-fun result () Int)

(declare-fun step1 () Int)

;; H
  (assert (= result step))

;; H
  (assert (= step1 1))

;; H
  (assert (in_range step1))

;; H
  (assert (<= (to_rep this__split_fields) (- 9 step1)))

(assert
;; WP_parameter_def
 ;; File "generic_parent.ads", line 10, characters 0-0
  (not (in_range (+ (to_rep this__split_fields) step1))))
(check-sat)
(exit)
